unsat
(define-fun f ((x0 (BitVec 64))) (BitVec 64) (bvsub x0 #b0000000000000000000000000000000000000000000000000000000000000101))
(define-fun f ((x0 (BitVec 64))) (BitVec 64) (bvsub x0 #b0000000000000000000000000000000000000000000000000000000000000101))
int-arith11.sl running time : 0 m .023510305 s
times : .023510305
